PointerNetwork/Ptr_Net_TSPTW/benchmark/n20w40/n20w40.004.txt.solution
1 14 6 2 19 5 18 8 11 12 16 9 4 13 20 7 17 3 15 21 10 
388
